tsp_instances/TSP50/instance78.tsp
NODE_COORD_SECTION
0 147 180
1 22 13
2 55 66
3 47 123
4 70 145
5 37 4
6 25 18
7 191 134
8 184 69
9 103 126
10 87 162
11 129 78
12 196 180
13 134 147
14 125 4
15 105 153
16 84 4
17 195 29
18 156 133
19 87 81
20 157 149
21 161 146
22 64 85
23 134 165
24 32 101
25 186 97
26 152 89
27 147 196
28 71 31
29 134 135
30 68 171
31 51 142
32 160 74
33 118 199
34 180 138
35 164 38
36 144 164
37 5 86
38 190 125
39 31 48
40 84 107
41 126 144
42 81 35
43 72 70
44 126 76
45 5 138
46 56 119
47 41 114
48 42 74
49 1 61
