tsp_instances/TSP50/instance78.opt.tour
TOUR_SECTION
1
13
35
8
39
26
27
12
45
33
9
18
36
15
17
43
29
6
2
7
40
50
38
49
3
23
44
20
41
47
4
48
25
46
32
5
31
11
16
10
42
14
30
19
22
21
37
24
34
28
-1